40
1 0 7
2 0 1
2 1 1
3 0 3
3 1 4
3 2 7
4 0 5
4 1 6
4 2 4
4 3 1
5 0 7
5 1 7
5 2 2
5 3 2
5 4 2
6 0 1
6 1 5
6 2 7
6 3 4
6 4 6
6 5 4
7 0 1
7 1 1
7 2 4
7 3 4
7 4 4
7 5 6
7 6 1
8 0 3
8 1 7
8 2 4
8 3 4
8 4 8
8 5 5
8 6 5
8 7 2
9 0 6
9 1 6
9 2 6
9 3 1
9 4 2
9 5 7
9 6 6
9 7 5
9 8 3
10 0 7
10 1 6
10 2 8
10 3 4
10 4 2
10 5 1
10 6 3
10 7 5
10 8 4
10 9 7
11 0 6
11 1 8
11 2 3
11 3 4
11 4 6
11 5 6
11 6 4
11 7 8
11 8 8
11 9 4
11 10 6
12 0 5
12 1 1
12 2 5
12 3 7
12 4 1
12 5 8
12 6 3
12 7 5
12 8 8
12 9 7
12 10 5
12 11 7
13 0 2
13 1 4
13 2 5
13 3 1
13 4 5
13 5 5
13 6 8
13 7 8
13 8 8
13 9 3
13 10 2
13 11 7
13 12 2
14 0 8
14 1 2
14 2 8
14 3 2
14 4 4
14 5 8
14 6 6
14 7 6
14 8 8
14 9 2
14 10 4
14 11 8
14 12 6
14 13 8
15 0 1
15 1 6
15 2 6
15 3 8
15 4 3
15 5 4
15 6 7
15 7 2
15 8 6
15 9 5
15 10 6
15 11 6
15 12 8
15 13 5
15 14 6
16 0 1
16 1 6
16 2 6
16 3 5
16 4 2
16 5 4
16 6 7
16 7 2
16 8 8
16 9 5
16 10 2
16 11 4
16 12 8
16 13 8
16 14 7
16 15 2
17 0 1
17 1 4
17 2 6
17 3 4
17 4 8
17 5 8
17 6 4
17 7 4
17 8 7
17 9 1
17 10 3
17 11 6
17 12 3
17 13 2
17 14 8
17 15 1
17 16 7
18 0 1
18 1 1
18 2 8
18 3 6
18 4 6
18 5 3
18 6 7
18 7 1
18 8 3
18 9 1
18 10 1
18 11 7
18 12 3
18 13 1
18 14 7
18 15 2
18 16 8
18 17 7
19 0 7
19 1 1
19 2 3
19 3 5
19 4 1
19 5 6
19 6 7
19 7 1
19 8 7
19 9 8
19 10 2
19 11 7
19 12 4
19 13 5
19 14 6
19 15 7
19 16 8
19 17 5
19 18 3
20 0 7
20 1 4
20 2 5
20 3 7
20 4 8
20 5 5
20 6 8
20 7 2
20 8 5
20 9 5
20 10 5
20 11 4
20 12 3
20 13 5
20 14 7
20 15 3
20 16 5
20 17 4
20 18 2
20 19 1
21 0 3
21 1 5
21 2 6
21 3 3
21 4 8
21 5 6
21 6 7
21 7 5
21 8 7
21 9 4
21 10 8
21 11 6
21 12 6
21 13 2
21 14 5
21 15 8
21 16 3
21 17 7
21 18 8
21 19 8
21 20 2
22 0 1
22 1 6
22 2 5
22 3 2
22 4 6
22 5 7
22 6 1
22 7 3
22 8 4
22 9 7
22 10 5
22 11 7
22 12 7
22 13 8
22 14 6
22 15 6
22 16 4
22 17 5
22 18 4
22 19 1
22 20 4
22 21 2
23 0 6
23 1 4
23 2 8
23 3 1
23 4 5
23 5 5
23 6 3
23 7 2
23 8 8
23 9 3
23 10 1
23 11 8
23 12 1
23 13 8
23 14 8
23 15 6
23 16 5
23 17 6
23 18 6
23 19 5
23 20 3
23 21 7
23 22 4
24 0 4
24 1 3
24 2 1
24 3 4
24 4 1
24 5 6
24 6 5
24 7 2
24 8 7
24 9 7
24 10 3
24 11 3
24 12 3
24 13 8
24 14 4
24 15 6
24 16 7
24 17 5
24 18 8
24 19 5
24 20 3
24 21 4
24 22 1
24 23 5
25 0 2
25 1 3
25 2 7
25 3 8
25 4 7
25 5 7
25 6 8
25 7 3
25 8 5
25 9 3
25 10 4
25 11 3
25 12 8
25 13 2
25 14 6
25 15 8
25 16 5
25 17 8
25 18 8
25 19 2
25 20 1
25 21 2
25 22 8
25 23 1
25 24 8
26 0 8
26 1 3
26 2 7
26 3 5
26 4 5
26 5 8
26 6 7
26 7 6
26 8 6
26 9 4
26 10 3
26 11 4
26 12 3
26 13 2
26 14 2
26 15 8
26 16 8
26 17 4
26 18 6
26 19 8
26 20 7
26 21 3
26 22 3
26 23 1
26 24 2
26 25 5
27 0 2
27 1 6
27 2 2
27 3 2
27 4 2
27 5 5
27 6 7
27 7 2
27 8 8
27 9 2
27 10 4
27 11 6
27 12 4
27 13 4
27 14 5
27 15 4
27 16 2
27 17 1
27 18 5
27 19 3
27 20 7
27 21 6
27 22 1
27 23 2
27 24 6
27 25 7
27 26 3
28 0 8
28 1 2
28 2 4
28 3 3
28 4 2
28 5 1
28 6 5
28 7 7
28 8 6
28 9 5
28 10 6
28 11 5
28 12 4
28 13 3
28 14 8
28 15 8
28 16 6
28 17 3
28 18 5
28 19 7
28 20 8
28 21 7
28 22 5
28 23 8
28 24 7
28 25 6
28 26 8
28 27 4
29 0 8
29 1 5
29 2 4
29 3 2
29 4 7
29 5 2
29 6 3
29 7 5
29 8 5
29 9 2
29 10 5
29 11 5
29 12 7
29 13 8
29 14 3
29 15 1
29 16 1
29 17 8
29 18 3
29 19 6
29 20 3
29 21 1
29 22 4
29 23 4
29 24 2
29 25 4
29 26 2
29 27 3
29 28 5
30 0 7
30 1 4
30 2 8
30 3 1
30 4 6
30 5 3
30 6 8
30 7 5
30 8 8
30 9 5
30 10 8
30 11 1
30 12 5
30 13 3
30 14 5
30 15 7
30 16 3
30 17 1
30 18 6
30 19 2
30 20 5
30 21 8
30 22 4
30 23 8
30 24 7
30 25 7
30 26 1
30 27 4
30 28 3
30 29 2
31 0 5
31 1 6
31 2 6
31 3 2
31 4 3
31 5 7
31 6 1
31 7 7
31 8 5
31 9 8
31 10 2
31 11 5
31 12 7
31 13 3
31 14 7
31 15 6
31 16 2
31 17 7
31 18 4
31 19 2
31 20 6
31 21 8
31 22 8
31 23 5
31 24 3
31 25 5
31 26 1
31 27 4
31 28 7
31 29 1
31 30 3
32 0 4
32 1 8
32 2 7
32 3 4
32 4 8
32 5 4
32 6 5
32 7 1
32 8 2
32 9 6
32 10 4
32 11 7
32 12 5
32 13 8
32 14 5
32 15 1
32 16 4
32 17 7
32 18 8
32 19 5
32 20 6
32 21 3
32 22 2
32 23 8
32 24 4
32 25 2
32 26 1
32 27 2
32 28 6
32 29 5
32 30 8
32 31 1
33 0 3
33 1 7
33 2 6
33 3 4
33 4 6
33 5 2
33 6 3
33 7 4
33 8 1
33 9 3
33 10 3
33 11 6
33 12 2
33 13 3
33 14 1
33 15 8
33 16 1
33 17 3
33 18 4
33 19 4
33 20 7
33 21 2
33 22 5
33 23 3
33 24 4
33 25 4
33 26 8
33 27 3
33 28 4
33 29 6
33 30 1
33 31 7
33 32 3
34 0 6
34 1 2
34 2 5
34 3 6
34 4 2
34 5 8
34 6 1
34 7 4
34 8 8
34 9 2
34 10 3
34 11 7
34 12 8
34 13 7
34 14 1
34 15 7
34 16 6
34 17 7
34 18 6
34 19 1
34 20 3
34 21 6
34 22 1
34 23 6
34 24 1
34 25 2
34 26 2
34 27 8
34 28 7
34 29 7
34 30 4
34 31 2
34 32 8
34 33 2
35 0 4
35 1 4
35 2 7
35 3 6
35 4 1
35 5 2
35 6 1
35 7 3
35 8 4
35 9 6
35 10 4
35 11 3
35 12 5
35 13 5
35 14 3
35 15 3
35 16 7
35 17 1
35 18 6
35 19 2
35 20 4
35 21 8
35 22 5
35 23 3
35 24 7
35 25 8
35 26 7
35 27 1
35 28 8
35 29 5
35 30 4
35 31 5
35 32 2
35 33 2
35 34 1
36 0 6
36 1 1
36 2 8
36 3 8
36 4 4
36 5 1
36 6 2
36 7 7
36 8 4
36 9 5
36 10 7
36 11 2
36 12 2
36 13 8
36 14 4
36 15 8
36 16 6
36 17 1
36 18 8
36 19 8
36 20 8
36 21 7
36 22 2
36 23 8
36 24 4
36 25 7
36 26 4
36 27 4
36 28 6
36 29 6
36 30 6
36 31 5
36 32 3
36 33 3
36 34 1
36 35 2
37 0 3
37 1 1
37 2 1
37 3 4
37 4 5
37 5 1
37 6 3
37 7 7
37 8 4
37 9 3
37 10 5
37 11 5
37 12 8
37 13 4
37 14 8
37 15 3
37 16 3
37 17 8
37 18 6
37 19 5
37 20 7
37 21 5
37 22 3
37 23 3
37 24 2
37 25 7
37 26 1
37 27 2
37 28 2
37 29 3
37 30 5
37 31 2
37 32 3
37 33 4
37 34 6
37 35 1
37 36 6
38 0 3
38 1 4
38 2 7
38 3 7
38 4 2
38 5 1
38 6 7
38 7 2
38 8 3
38 9 8
38 10 1
38 11 5
38 12 3
38 13 6
38 14 7
38 15 3
38 16 3
38 17 6
38 18 2
38 19 1
38 20 2
38 21 5
38 22 5
38 23 4
38 24 6
38 25 7
38 26 6
38 27 6
38 28 2
38 29 2
38 30 4
38 31 6
38 32 1
38 33 4
38 34 4
38 35 4
38 36 7
38 37 8
39 0 2
39 1 6
39 2 3
39 3 2
39 4 8
39 5 1
39 6 1
39 7 3
39 8 7
39 9 2
39 10 5
39 11 8
39 12 6
39 13 5
39 14 1
39 15 1
39 16 8
39 17 1
39 18 4
39 19 8
39 20 3
39 21 5
39 22 8
39 23 8
39 24 8
39 25 5
39 26 1
39 27 2
39 28 6
39 29 3
39 30 5
39 31 8
39 32 1
39 33 7
39 34 7
39 35 4
39 36 2
39 37 8
39 38 2
